
<<< setup

Tried aggregator 1 time.
LP Presolve eliminated 115 rows and 96 columns.
Reduced LP has 1 rows, 4 columns, and 4 nonzeros.
Presolve time = 0.00 sec. (0.04 ticks)

Iteration log . . .
Iteration:     1   Dual objective     =          1277.613328
main returns 0

<<< main


<<< done

